     Program PWSCF v.7.1 starts on  5May2024 at  2:17: 9

     Waiting for input...
     Reading input from standard input
Warning: card &CELL ignored
Warning: card / ignored

     Current dimensions of program PWSCF are:
     Max number of different atomic species (ntypx) = 10
     Max number of k-points (npk) =  40000
     Max angular momentum in pseudopotentials (lmaxx) =  4
     file Cl.pbe-n-kjpaw_psl.1.0.0.UPF: wavefunction(s)  3S 3P renormalized
     file Cs.pbe-spn-kjpaw_psl.1.0.0.UPF: wavefunction(s)  5S 6S renormalized
     file Ge.pbe-dn-kjpaw_psl.0.2.2.UPF: wavefunction(s)  4P 3D renormalized
     Found identity + ( -0.3333  0.3333  0.3333) symmetry
     This is a supercell, fractional translations are disabled
     Message from routine setup:
     using ibrav=0 with symmetry is DISCOURAGED, use correct ibrav instead

     R & G space division:  proc/nbgrp/npool/nimage =       2
     Subspace diagonalization in iterative solution of the eigenvalue problem:
     a serial algorithm will be used

     Using Slab Decomposition

     bravais-lattice index     =            0
     lattice parameter (alat)  =      14.5389  a.u.
     unit-cell volume          =    3298.4201 (a.u.)^3
     number of atoms/cell      =           15
     number of atomic types    =            3
     number of electrons       =       132.00
     number of Kohn-Sham states=           66
     kinetic-energy cutoff     =      50.0000  Ry
     charge density cutoff     =     500.0000  Ry
     scf convergence threshold =      1.0E-07
     mixing beta               =       0.7000
     number of iterations used =            8  plain     mixing
     Exchange-correlation= SLA  PW   PBX  PBC
                           (   1   4   3   4   0   0   0)

     celldm(1)=  14.538854  celldm(2)=   0.000000  celldm(3)=   0.000000
     celldm(4)=   0.000000  celldm(5)=   0.000000  celldm(6)=   0.000000

     crystal axes: (cart. coord. in units of alat)
               a(1) = (   1.000000   0.000000   0.000000 )
               a(2) = (  -0.500000   0.866025   0.000000 )
               a(3) = (   0.000000   0.000000   1.239324 )

     reciprocal axes: (cart. coord. in units 2 pi/alat)
               b(1) = (  1.000000  0.577350 -0.000000 )
               b(2) = (  0.000000  1.154701  0.000000 )
               b(3) = (  0.000000 -0.000000  0.806892 )

     PseudoPot. # 1 for Cl read from file:
     /home/bond/Software/qe-7.1/pseudo/Cl.pbe-n-kjpaw_psl.1.0.0.UPF
     MD5 check sum: 530da96d25dcb7781b0586ca00827062
     Pseudo is Projector augmented-wave + core cor, Zval =  7.0
     Generated using &quot;atomic&quot; code by A. Dal Corso  v.6.3
     Shape of augmentation charge: PSQ
     Using radial grid of 1157 points,  6 beta functions with:
                l(1) =   0
                l(2) =   0
                l(3) =   1
                l(4) =   1
                l(5) =   2
                l(6) =   2
     Q(r) pseudized with 0 coefficients

     PseudoPot. # 2 for Cs read from file:
     /home/bond/Software/qe-7.1/pseudo/Cs.pbe-spn-kjpaw_psl.1.0.0.UPF
     MD5 check sum: b82c75cc2e1f4ff73b6412cffeb9c584
     Pseudo is Projector augmented-wave + core cor, Zval =  9.0
     Generated using &quot;atomic&quot; code by A. Dal Corso  v.6.4.1
     Shape of augmentation charge: PSQ
     Using radial grid of 1251 points,  9 beta functions with:
                l(1) =   0
                l(2) =   0
                l(3) =   0
                l(4) =   1
                l(5) =   1
                l(6) =   2
                l(7) =   2
                l(8) =   3
                l(9) =   3
     Q(r) pseudized with 0 coefficients

     PseudoPot. # 3 for Ge read from file:
     /home/bond/Software/qe-7.1/pseudo/Ge.pbe-dn-kjpaw_psl.0.2.2.UPF
     MD5 check sum: acf6dd3aa1b4e03129ff8bf786ac0282
     Pseudo is Projector augmented-wave + core cor, Zval = 14.0
     Generated using "atomic" code by A. Dal Corso  v.5.0.2 svn rev. 9415
     Shape of augmentation charge: PSQ
     Using radial grid of 1207 points,  6 beta functions with:
                l(1) =   0
                l(2) =   0
                l(3) =   1
                l(4) =   1
                l(5) =   2
                l(6) =   2
     Q(r) pseudized with 0 coefficients

     atomic species   valence    mass     pseudopotential
        Cl             7.00    35.45000     Cl( 1.00)
        Cs             9.00   132.90545     Cs( 1.00)
        Ge            14.00    72.63000     Ge( 1.00)

      6 Sym. Ops. (no inversion) found

   Cartesian axes

     site n.     atom                  positions (alat units)
         1           Cs  tau(   1) = (   0.0000000   0.0000000   1.2373405  )
         2           Cs  tau(   2) = (   0.4999994   0.2886752   0.4111245  )
         3           Cs  tau(   3) = (   0.0000000   0.5773504   0.8242325  )
         4           Ge  tau(   4) = (   0.0000000   0.0000000   0.6389091  )
         5           Ge  tau(   5) = (   0.4999994   0.2886752   1.0520171  )
         6           Ge  tau(   6) = (   0.0000000   0.5773504   0.2258011  )
         7           Cl  tau(   7) = (   0.0000000   0.3164280   0.3891726  )
         8           Cl  tau(   8) = (   0.2259649   0.7078115   0.3891726  )
         9           Cl  tau(   9) = (  -0.2259649   0.7078115   0.3891726  )
        10           Cl  tau(  10) = (   0.5000006   0.6051032   0.8022806  )
        11           Cl  tau(  11) = (   0.2259649   0.1304612   0.8022806  )
        12           Cl  tau(  12) = (   0.7740351   0.1304612   0.8022806  )
        13           Cl  tau(  13) = (   0.4999994   0.0277528   1.2153886  )
        14           Cl  tau(  14) = (   0.7259655   0.4191364   1.2153886  )
        15           Cl  tau(  15) = (   0.2740345   0.4191364   1.2153886  )

     number of k points=    20
                       cart. coord. in units 2pi/alat
        k(    1) = (   0.1250000   0.2165064   0.1008614), wk =   0.1250000
        k(    2) = (   0.1250000   0.2165064   0.3025843), wk =   0.1250000
        k(    3) = (   0.1250000   0.5051815   0.1008614), wk =   0.1250000
        k(    4) = (   0.1250000   0.5051815   0.3025843), wk =   0.1250000
        k(    5) = (   0.1250000  -0.3608439   0.1008614), wk =   0.1250000
        k(    6) = (   0.1250000  -0.3608439   0.3025843), wk =   0.1250000
        k(    7) = (   0.1250000  -0.0721688   0.1008614), wk =   0.0625000
        k(    8) = (   0.1250000  -0.0721688   0.3025843), wk =   0.0625000
        k(    9) = (   0.3750000   0.6495191   0.1008614), wk =   0.1250000
        k(   10) = (   0.3750000   0.6495191   0.3025843), wk =   0.1250000
        k(   11) = (   0.3750000  -0.2165064   0.1008614), wk =   0.0625000
        k(   12) = (   0.3750000  -0.2165064   0.3025843), wk =   0.0625000
        k(   13) = (  -0.1250000  -0.5051815   0.1008614), wk =   0.1250000
        k(   14) = (  -0.1250000  -0.5051815   0.3025843), wk =   0.1250000
        k(   15) = (  -0.1250000   0.3608439   0.1008614), wk =   0.1250000
        k(   16) = (  -0.1250000   0.3608439   0.3025843), wk =   0.1250000
        k(   17) = (  -0.1250000   0.0721688   0.1008614), wk =   0.0625000
        k(   18) = (  -0.1250000   0.0721688   0.3025843), wk =   0.0625000
        k(   19) = (  -0.3750000   0.2165064   0.1008614), wk =   0.0625000
        k(   20) = (  -0.3750000   0.2165064   0.3025843), wk =   0.0625000

     Check: negative core charge=   -0.000002

     Initial potential from superposition of free atoms

     starting charge     131.8788, renormalised to     132.0000
     Starting wfcs are   78 randomized atomic wfcs
     Checking if some PAW data can be deallocated...

     Self-consistent Calculation

     iteration #  1     ecut=    50.00 Ry     beta= 0.70
     Davidson diagonalization with overlap
     ethr =  1.00E-02,  avg # of iterations =  1.9

     Threshold (ethr) on eigenvalues was too large:
     Diagonalizing with lowered threshold

     Davidson diagonalization with overlap
     ethr =  4.37E-04,  avg # of iterations =  3.8

     negative rho (up, down):  8.247E-03 0.000E+00

     total energy              =   -2909.15554836 Ry
     estimated scf accuracy    <       0.51146042 Ry

[...]

     negative rho (up, down):  6.719E-04 0.000E+00

[...]

     total energy              =   -2909.39090658 Ry
     estimated scf accuracy    <       0.00000523 Ry

     iteration # 13     ecut=    50.00 Ry     beta= 0.70
     Davidson diagonalization with overlap
     ethr =  3.96E-09,  avg # of iterations =  5.2

     End of self-consistent calculation

          k = 0.1250 0.2165 0.1009 ( 19696 PWs)   bands (ev):

   -20.8189 -20.8188 -20.8184 -20.8181 -20.8178 -20.8176 -20.7813 -20.7813
   -20.7810 -20.7810 -20.7807 -20.7807 -20.7593 -20.7590 -20.7589 -17.4487
   -17.4440 -17.4426 -11.8167 -11.6522 -11.5890 -11.1873 -11.1707 -11.1402
   -11.1024 -11.0648 -11.0373  -4.7101  -4.4691  -4.3111  -4.2995  -4.2893
    -4.2729  -4.2721  -4.2675  -4.2626  -4.2484  -4.2185  -3.5952  -1.1717
    -1.0681  -0.7415  -0.4259  -0.2758  -0.0708  -0.0241   0.0544   0.1480
     0.4342   0.5068   0.5351   0.6389   0.8347   0.9039   1.0347   1.1295
     1.1851   1.2110   1.2209   1.2701   1.3098   1.3917   1.4710   1.6092
     2.5768   3.0591

[...]

          k = 0.3750-0.2165 0.3026 ( 19685 PWs)   bands (ev):

[...]

          k =-0.1250-0.5052 0.1009 ( 19690 PWs)   bands (ev):

[...]

          k =-0.3750 0.2165 0.3026 ( 19685 PWs)   bands (ev):

   -20.8190 -20.8186 -20.8182 -20.8180 -20.8179 -20.8177 -20.7813 -20.7813
   -20.7810 -20.7809 -20.7808 -20.7807 -20.7593 -20.7590 -20.7589 -17.4468
   -17.4448 -17.4432 -11.7533 -11.6806 -11.6169 -11.1570 -11.1531 -11.1502
   -11.1493 -11.0932 -11.0278  -4.6025  -4.3249  -4.3042  -4.3022  -4.2831
    -4.2586  -4.2523  -4.2438  -4.2390  -4.2301  -4.1860  -3.8530  -1.1490
    -1.0509  -0.9828  -0.4921  -0.2778  -0.2326   0.0497   0.1983   0.2512
     0.4626   0.5024   0.6048   0.7075   0.7165   0.9109   1.0002   1.0023
     1.0974   1.1317   1.1415   1.1796   1.3334   1.3930   1.4029   2.0027
     2.3999   2.7481

     highest occupied level (ev):     3.5804

!    total energy              =   -2909.39090783 Ry
     total all-electron energy =    -67624.283753 Ry
     estimated scf accuracy    <       0.00000009 Ry

     The total energy is the sum of the following terms:
     one-electron contribution =    -648.63905023 Ry
     hartree contribution      =     389.41278064 Ry
     xc contribution           =    -331.48072516 Ry
     ewald contribution        =    -524.65386481 Ry
     one-center paw contrib.   =   -1794.03004828 Ry

     convergence has been achieved in  13 iterations

     Forces acting on atoms (cartesian axes, Ry/au):

     atom    1 type  2   force =     0.00000000    0.00000000    0.00023515
     atom    2 type  2   force =     0.00000000   -0.00000000    0.00022668
     atom    3 type  2   force =     0.00000000    0.00000000    0.00025013
     atom    4 type  3   force =     0.00000000    0.00000000   -0.01417685
     atom    5 type  3   force =     0.00000000    0.00000000   -0.01416951
     atom    6 type  3   force =    -0.00000000   -0.00000000   -0.01408087
     atom    7 type  1   force =     0.00000000   -0.00892847    0.00460901
     atom    8 type  1   force =     0.00773228    0.00446423    0.00460901
     atom    9 type  1   force =    -0.00773228    0.00446423    0.00460901
     atom   10 type  1   force =    -0.00000000   -0.00895885    0.00465529
     atom   11 type  1   force =     0.00775860    0.00447943    0.00465529
     atom   12 type  1   force =    -0.00775860    0.00447943    0.00465529
     atom   13 type  1   force =    -0.00000000   -0.00895904    0.00464080
     atom   14 type  1   force =     0.00775876    0.00447952    0.00464080
     atom   15 type  1   force =    -0.00775876    0.00447952    0.00464080

     Total force =     0.038914     Total SCF correction =     0.000684

     Computing stress (Cartesian axis) and pressure

          total   stress  (Ry/bohr**3)                   (kbar)     P=        9.60
   0.00006878  -0.00000000   0.00000000           10.12       -0.00        0.00
  -0.00000000   0.00006878   0.00000000           -0.00       10.12        0.00
   0.00000000  -0.00000000   0.00005823            0.00       -0.00        8.57

     General routines

     Parallel routines

   This run was terminated on:   2:49: 0   5May2024

   JOB DONE.