     Program PWSCF v.7.1 starts on  7May2024 at  2:14:50

     Waiting for input...
     Reading input from standard input
Warning: card &CELL ignored
Warning: card / ignored

     Current dimensions of program PWSCF are:
     Max number of different atomic species (ntypx) = 10
     Max number of k-points (npk) =  40000
     Max angular momentum in pseudopotentials (lmaxx) =  4
     file Mg.pbe-spnl-kjpaw_psl.1.0.0.UPF: wavefunction(s)  2P renormalized
     Message from routine setup:
     using ibrav=0 with symmetry is DISCOURAGED, use correct ibrav instead

     R & G space division:  proc/nbgrp/npool/nimage =       2
     Subspace diagonalization in iterative solution of the eigenvalue problem:
     a serial algorithm will be used

     Using Slab Decomposition

     bravais-lattice index     =            0
     lattice parameter (alat)  =       5.9943  a.u.
     unit-cell volume          =     302.3186 (a.u.)^3
     number of atoms/cell      =            2
     number of atomic types    =            1
     number of electrons       =        20.00
     number of Kohn-Sham states=           14
     kinetic-energy cutoff     =      70.0000  Ry
     charge density cutoff     =     560.0000  Ry
     scf convergence threshold =      1.0E-07
     mixing beta               =       0.7000
     number of iterations used =            8  plain     mixing
     energy convergence thresh.=      1.0E-04
     force convergence thresh. =      1.0E-03
     Exchange-correlation= SLA  PW   PBX  PBC
                           (   1   4   3   4   0   0   0)
     nstep                     =           50

     celldm(1)=   5.994255  celldm(2)=   0.000000  celldm(3)=   0.000000
     celldm(4)=   0.000000  celldm(5)=   0.000000  celldm(6)=   0.000000

     crystal axes: (cart. coord. in units of alat)
               a(1) = (   1.000000   0.000000   0.000000 )
               a(2) = (  -0.500000   0.866025   0.000000 )
               a(3) = (   0.000000   0.000000   1.620797 )

     reciprocal axes: (cart. coord. in units 2 pi/alat)
               b(1) = (  1.000000  0.577350 -0.000000 )
               b(2) = (  0.000000  1.154701  0.000000 )
               b(3) = (  0.000000 -0.000000  0.616981 )

     PseudoPot. # 1 for Mg read from file:
     /home/bond/Software/qe-7.1/pseudo/Mg.pbe-spnl-kjpaw_psl.1.0.0.UPF
     MD5 check sum: fda14e0d92a6a9a5ebed782e5a4b3067
     Pseudo is Projector augmented-wave + core cor, Zval = 10.0
     Generated using &quot;atomic&quot; code by A. Dal Corso  v.6.3
     Shape of augmentation charge: PSQ
     Using radial grid of 1129 points,  4 beta functions with:
                l(1) =   0
                l(2) =   0
                l(3) =   1
                l(4) =   1
     Q(r) pseudized with 0 coefficients

     atomic species   valence    mass     pseudopotential
        Mg            10.00    24.30500     Mg( 1.00)

     24 Sym. Ops., with inversion, found (12 have fractional translation)

   Cartesian axes

     site n.     atom                  positions (alat units)
         1           Mg  tau(   1) = (  -0.0000000   0.5773507   0.4051988  )
         2           Mg  tau(   2) = (   0.4999995   0.2886738   1.2155964  )

     number of k points=    15  Methfessel-Paxton smearing, width (Ry)=  0.0200
                       cart. coord. in units 2pi/alat
        k(    1) = (   0.0000000   0.0000000   0.0000000), wk =   0.0160000
        k(    2) = (   0.0000000   0.0000000   0.1233961), wk =   0.0320000
        k(    3) = (   0.0000000   0.0000000   0.2467922), wk =   0.0320000
        k(    4) = (   0.0000000   0.2309401   0.0000000), wk =   0.0960000
        k(    5) = (   0.0000000   0.2309401   0.1233961), wk =   0.1920000
        k(    6) = (   0.0000000   0.2309401   0.2467922), wk =   0.1920000
        k(    7) = (   0.0000000   0.4618802   0.0000000), wk =   0.0960000
        k(    8) = (   0.0000000   0.4618802   0.1233961), wk =   0.1920000
        k(    9) = (   0.0000000   0.4618802   0.2467922), wk =   0.1920000
        k(   10) = (   0.2000000   0.3464102   0.0000000), wk =   0.0960000
        k(   11) = (   0.2000000   0.3464102   0.1233961), wk =   0.1920000
        k(   12) = (   0.2000000   0.3464102   0.2467922), wk =   0.1920000
        k(   13) = (   0.2000000   0.5773503   0.0000000), wk =   0.0960000
        k(   14) = (   0.2000000   0.5773503   0.1233961), wk =   0.1920000
        k(   15) = (   0.2000000   0.5773503   0.2467922), wk =   0.1920000

     Check: negative core charge=   -0.000003

     Initial potential from superposition of free atoms

     starting charge      19.9982, renormalised to      20.0000
     Starting wfcs are   10 randomized atomic wfcs +    4 random wfcs
     Checking if some PAW data can be deallocated...

     Self-consistent Calculation

     iteration #  1     ecut=    70.00 Ry     beta= 0.70
     Davidson diagonalization with overlap
     ethr =  1.00E-02,  avg # of iterations =  5.2

     Threshold (ethr) on eigenvalues was too large:
     Diagonalizing with lowered threshold

     Davidson diagonalization with overlap
     ethr =  3.53E-05,  avg # of iterations =  5.3

     total energy              =    -282.79759991 Ry
     estimated scf accuracy    <       0.00746833 Ry

[...]

     total energy              =    -282.79770705 Ry
     estimated scf accuracy    <       0.00000196 Ry

     iteration #  4     ecut=    70.00 Ry     beta= 0.70
     Davidson diagonalization with overlap
     ethr =  9.78E-09,  avg # of iterations =  4.4

     End of self-consistent calculation

          k = 0.0000 0.0000 0.0000 (  2971 PWs)   bands (ev):

   -70.3869 -70.3835 -37.1601 -37.1236 -37.1205 -37.1205 -37.1147 -37.1147
    -1.4523   3.8691   4.3639  16.6456  16.8094  16.8098

[...]

          k = 0.2000 0.5774 0.2468 (  2997 PWs)   bands (ev):

   -70.3831 -70.3828 -37.1495 -37.1479 -37.1352 -37.1323 -37.1273 -37.1258
     4.7416   4.7824   6.0252   6.0290   8.7694   9.7656

     the Fermi energy is     5.6238 ev

!    total energy              =    -282.79770941 Ry
     total all-electron energy =      -801.338247 Ry
     estimated scf accuracy    <       0.00000006 Ry
     smearing contrib. (-TS)   =       0.00083578 Ry
     internal energy E=F+TS    =    -282.79854519 Ry

     The total energy is F=E-TS. E is the sum of the following terms:
     one-electron contribution =    -211.28159939 Ry
     hartree contribution      =     101.94988716 Ry
     xc contribution           =     -35.10855202 Ry
     ewald contribution        =    -108.43493621 Ry
     one-center paw contrib.   =     -29.92334473 Ry

     convergence has been achieved in   4 iterations

     Forces acting on atoms (cartesian axes, Ry/au):

     atom    1 type  1   force =     0.00000000   -0.00000000    0.00000000
     atom    2 type  1   force =     0.00000000    0.00000000    0.00000000

     Total force =     0.000000     Total SCF correction =     0.000004

     Computing stress (Cartesian axis) and pressure

          total   stress  (Ry/bohr**3)                   (kbar)     P=       -2.30
  -0.00002237   0.00000000   0.00000000           -3.29        0.00        0.00
   0.00000000  -0.00002237   0.00000000            0.00       -3.29        0.00
   0.00000000   0.00000000  -0.00000224            0.00        0.00       -0.33

     BFGS Geometry Optimization
     Energy error            =      0.0E+00 Ry
     Gradient error          =      1.0E-20 Ry/Bohr

     bfgs converged in   1 scf cycles and   0 bfgs steps
     (criteria: energy <  1.0E-04 Ry, force <  1.0E-03 Ry/Bohr)

     End of BFGS Geometry Optimization

     Final energy             =    -282.7977094140 Ry
Begin final coordinates

ATOMIC_POSITIONS (angstrom)
Mg            0.0000000000        1.8313700000        1.2853000000
Mg            1.5860100000        0.9156800000        3.8559000000
End final coordinates

     General routines

     Parallel routines

   This run was terminated on:   2:14:59   7May2024

   JOB DONE.